;; Produced with Z3_solver_to_string()
(declare-fun sea.sp0_0 () (_ BitVec 64))
(declare-fun main@%_0_0 () (_ BitVec 32))
(declare-fun main@%_7_0 () (_ BitVec 8))
(declare-fun main@%_9_0 () (_ BitVec 8))
(declare-fun main@%_15_0 () (_ BitVec 8))
(declare-fun main@%_21_0 () (_ BitVec 32))
(declare-fun main@%_28_0 () (_ BitVec 8))
(declare-fun main@%_31_0 () (_ BitVec 8))
(declare-fun main@%_38_0 () (_ BitVec 8))
(declare-fun main@%_107_0 () (_ BitVec 32))
(declare-fun main@%_114_0 () (_ BitVec 8))
(declare-fun main@%_117_0 () (_ BitVec 8))
(declare-fun main@%_124_0 () (_ BitVec 8))
(declare-fun main@%_153_0 () (_ BitVec 32))
(declare-fun main@%_160_0 () (_ BitVec 8))
(declare-fun main@%_163_0 () (_ BitVec 8))
(declare-fun main@%_170_0 () (_ BitVec 8))
(declare-fun main@%_199_0 () (_ BitVec 32))
(declare-fun main@%_206_0 () (_ BitVec 8))
(declare-fun main@%_209_0 () (_ BitVec 8))
(declare-fun main@%_216_0 () (_ BitVec 8))
(declare-fun main@%_245_0 () (_ BitVec 32))
(declare-fun main@%_252_0 () (_ BitVec 8))
(declare-fun main@%_255_0 () (_ BitVec 8))
(declare-fun main@%_262_0 () (_ BitVec 8))
(declare-fun main@%_291_0 () (_ BitVec 32))
(declare-fun main@%_298_0 () (_ BitVec 8))
(declare-fun main@%_301_0 () (_ BitVec 8))
(declare-fun main@%_308_0 () (_ BitVec 8))
(declare-fun main@%_337_0 () (_ BitVec 32))
(declare-fun main@%_344_0 () (_ BitVec 8))
(declare-fun main@%_347_0 () (_ BitVec 8))
(declare-fun main@%_354_0 () (_ BitVec 8))
(declare-fun main@%_383_0 () (_ BitVec 32))
(declare-fun main@%_390_0 () (_ BitVec 8))
(declare-fun main@%_393_0 () (_ BitVec 8))
(declare-fun main@%_400_0 () (_ BitVec 8))
(declare-fun main@%_429_0 () (_ BitVec 32))
(declare-fun main@%_436_0 () (_ BitVec 8))
(declare-fun main@%_439_0 () (_ BitVec 8))
(declare-fun main@%_446_0 () (_ BitVec 8))
(declare-fun main@%_475_0 () (_ BitVec 32))
(declare-fun main@%_482_0 () (_ BitVec 8))
(declare-fun main@%_485_0 () (_ BitVec 8))
(declare-fun main@%_492_0 () (_ BitVec 8))
(declare-fun main@%_521_0 () (_ BitVec 32))
(declare-fun main@%_528_0 () (_ BitVec 8))
(declare-fun main@%_531_0 () (_ BitVec 8))
(declare-fun main@%_538_0 () (_ BitVec 8))
(declare-fun main@%_567_0 () (_ BitVec 32))
(declare-fun main@%_574_0 () (_ BitVec 8))
(declare-fun main@%_577_0 () (_ BitVec 8))
(declare-fun main@%_584_0 () (_ BitVec 8))
(declare-fun main@%_613_0 () (_ BitVec 32))
(declare-fun main@%_620_0 () (_ BitVec 8))
(declare-fun main@%_623_0 () (_ BitVec 8))
(declare-fun main@%_630_0 () (_ BitVec 8))
(declare-fun main@%_659_0 () (_ BitVec 32))
(declare-fun main@%_666_0 () (_ BitVec 8))
(declare-fun main@%_669_0 () (_ BitVec 8))
(declare-fun main@%_676_0 () (_ BitVec 8))
(declare-fun main@%_705_0 () (_ BitVec 32))
(declare-fun main@%_712_0 () (_ BitVec 8))
(declare-fun main@%_715_0 () (_ BitVec 8))
(declare-fun main@%_722_0 () (_ BitVec 8))
(declare-fun main@%_751_0 () (_ BitVec 32))
(declare-fun main@%_758_0 () (_ BitVec 8))
(declare-fun main@%_761_0 () (_ BitVec 8))
(declare-fun main@%_768_0 () (_ BitVec 8))
(declare-fun main@%_797_0 () (_ BitVec 32))
(declare-fun main@%_804_0 () (_ BitVec 8))
(declare-fun main@%_807_0 () (_ BitVec 8))
(declare-fun main@%_814_0 () (_ BitVec 8))
(declare-fun main@%_843_0 () (_ BitVec 32))
(declare-fun main@%_850_0 () (_ BitVec 8))
(declare-fun main@%_853_0 () (_ BitVec 8))
(declare-fun main@%_860_0 () (_ BitVec 8))
(declare-fun main@%_889_0 () (_ BitVec 32))
(declare-fun main@%_896_0 () (_ BitVec 8))
(declare-fun main@%_898_0 () (_ BitVec 8))
(declare-fun main@%_901_0 () (_ BitVec 8))
(declare-fun main@%_2_0 () (_ BitVec 32))
(declare-fun main@%_4_0 () (_ BitVec 8))
(declare-fun main@%_23_0 () (_ BitVec 32))
(declare-fun main@%_25_0 () (_ BitVec 8))
(declare-fun main@%_109_0 () (_ BitVec 32))
(declare-fun main@%_111_0 () (_ BitVec 8))
(declare-fun main@%_155_0 () (_ BitVec 32))
(declare-fun main@%_157_0 () (_ BitVec 8))
(declare-fun main@%_201_0 () (_ BitVec 32))
(declare-fun main@%_203_0 () (_ BitVec 8))
(declare-fun main@%_247_0 () (_ BitVec 32))
(declare-fun main@%_249_0 () (_ BitVec 8))
(declare-fun main@%_293_0 () (_ BitVec 32))
(declare-fun main@%_295_0 () (_ BitVec 8))
(declare-fun main@%_339_0 () (_ BitVec 32))
(declare-fun main@%_341_0 () (_ BitVec 8))
(declare-fun main@%_385_0 () (_ BitVec 32))
(declare-fun main@%_387_0 () (_ BitVec 8))
(declare-fun main@%_431_0 () (_ BitVec 32))
(declare-fun main@%_433_0 () (_ BitVec 8))
(declare-fun main@%_477_0 () (_ BitVec 32))
(declare-fun main@%_479_0 () (_ BitVec 8))
(declare-fun main@%_523_0 () (_ BitVec 32))
(declare-fun main@%_525_0 () (_ BitVec 8))
(declare-fun main@%_569_0 () (_ BitVec 32))
(declare-fun main@%_571_0 () (_ BitVec 8))
(declare-fun main@%_615_0 () (_ BitVec 32))
(declare-fun main@%_617_0 () (_ BitVec 8))
(declare-fun main@%_661_0 () (_ BitVec 32))
(declare-fun main@%_663_0 () (_ BitVec 8))
(declare-fun main@%_707_0 () (_ BitVec 32))
(declare-fun main@%_709_0 () (_ BitVec 8))
(declare-fun main@%_753_0 () (_ BitVec 32))
(declare-fun main@%_755_0 () (_ BitVec 8))
(declare-fun main@%_799_0 () (_ BitVec 32))
(declare-fun main@%_801_0 () (_ BitVec 8))
(declare-fun main@%_845_0 () (_ BitVec 32))
(declare-fun main@%_847_0 () (_ BitVec 8))
(declare-fun main@%_891_0 () (_ BitVec 32))
(declare-fun main@%_893_0 () (_ BitVec 8))
(assert (= #b000 ((_ extract 2 0) sea.sp0_0)))
(assert (bvule sea.sp0_0 #x00000000c0000000))
(assert (bvuge sea.sp0_0 #x00000000bf700000))
(assert (let ((a!1 (= ((_ extract 0 0) (bvor (bvand main@%_9_0 main@%_7_0) main@%_4_0))
              #b1))
      (a!3 (= ((_ extract 0 0) (bvor main@%_15_0 (bvand main@%_9_0 main@%_7_0)))
              #b1))
      (a!5 (ite (= ((_ extract 0 0) main@%_9_0) #b1)
                (= ((_ extract 0 0) main@%_7_0) #b1)
                false))
      (a!6 ((_ extract 59 0)
             (bvlshr (bvmul ((_ zero_extend 32) main@%_2_0)
                            ((_ zero_extend 32) main@%_0_0))
                     #x0000000000000002)))
      (a!9 (= ((_ extract 0 0)
                (bvor (bvand main@%_31_0 main@%_28_0) main@%_25_0))
              #b1))
      (a!11 (= ((_ extract 0 0)
                 (bvor main@%_38_0 (bvand main@%_31_0 main@%_28_0)))
               #b1))
      (a!13 (ite (= ((_ extract 0 0) main@%_31_0) #b1)
                 (= ((_ extract 0 0) main@%_28_0) #b1)
                 false))
      (a!14 ((_ extract 59 0)
              (bvlshr (bvmul ((_ zero_extend 32) main@%_23_0)
                             ((_ zero_extend 32) main@%_21_0))
                      #x0000000000000002)))
      (a!17 (= ((_ extract 0 0)
                 (bvor (bvand main@%_117_0 main@%_114_0) main@%_111_0))
               #b1))
      (a!20 (= ((_ extract 0 0)
                 (bvor main@%_124_0 (bvand main@%_117_0 main@%_114_0)))
               #b1))
      (a!24 (ite (= ((_ extract 0 0) main@%_117_0) #b1)
                 (= ((_ extract 0 0) main@%_114_0) #b1)
                 false))
      (a!25 ((_ extract 59 0)
              (bvlshr (bvmul ((_ zero_extend 32) main@%_109_0)
                             ((_ zero_extend 32) main@%_107_0))
                      #x0000000000000002)))
      (a!27 (= ((_ extract 0 0)
                 (bvor (bvand main@%_163_0 main@%_160_0) main@%_157_0))
               #b1))
      (a!29 (= ((_ extract 0 0)
                 (bvor main@%_170_0 (bvand main@%_163_0 main@%_160_0)))
               #b1))
      (a!32 (ite (= ((_ extract 0 0) main@%_163_0) #b1)
                 (= ((_ extract 0 0) main@%_160_0) #b1)
                 false))
      (a!33 ((_ extract 59 0)
              (bvlshr (bvmul ((_ zero_extend 32) main@%_155_0)
                             ((_ zero_extend 32) main@%_153_0))
                      #x0000000000000002)))
      (a!36 (= ((_ extract 0 0)
                 (bvor (bvand main@%_209_0 main@%_206_0) main@%_203_0))
               #b1))
      (a!38 (= ((_ extract 0 0)
                 (bvor main@%_216_0 (bvand main@%_209_0 main@%_206_0)))
               #b1))
      (a!40 (ite (= ((_ extract 0 0) main@%_209_0) #b1)
                 (= ((_ extract 0 0) main@%_206_0) #b1)
                 false))
      (a!41 ((_ extract 59 0)
              (bvlshr (bvmul ((_ zero_extend 32) main@%_201_0)
                             ((_ zero_extend 32) main@%_199_0))
                      #x0000000000000002)))
      (a!44 (= ((_ extract 0 0)
                 (bvor (bvand main@%_255_0 main@%_252_0) main@%_249_0))
               #b1))
      (a!47 (= ((_ extract 0 0)
                 (bvor main@%_262_0 (bvand main@%_255_0 main@%_252_0)))
               #b1))
      (a!51 (ite (= ((_ extract 0 0) main@%_255_0) #b1)
                 (= ((_ extract 0 0) main@%_252_0) #b1)
                 false))
      (a!52 ((_ extract 59 0)
              (bvlshr (bvmul ((_ zero_extend 32) main@%_247_0)
                             ((_ zero_extend 32) main@%_245_0))
                      #x0000000000000002)))
      (a!54 (= ((_ extract 0 0)
                 (bvor (bvand main@%_301_0 main@%_298_0) main@%_295_0))
               #b1))
      (a!56 (= ((_ extract 0 0)
                 (bvor main@%_308_0 (bvand main@%_301_0 main@%_298_0)))
               #b1))
      (a!59 (ite (= ((_ extract 0 0) main@%_301_0) #b1)
                 (= ((_ extract 0 0) main@%_298_0) #b1)
                 false))
      (a!60 ((_ extract 59 0)
              (bvlshr (bvmul ((_ zero_extend 32) main@%_293_0)
                             ((_ zero_extend 32) main@%_291_0))
                      #x0000000000000002)))
      (a!63 (= ((_ extract 0 0)
                 (bvor (bvand main@%_347_0 main@%_344_0) main@%_341_0))
               #b1))
      (a!65 (= ((_ extract 0 0)
                 (bvor main@%_354_0 (bvand main@%_347_0 main@%_344_0)))
               #b1))
      (a!67 (ite (= ((_ extract 0 0) main@%_347_0) #b1)
                 (= ((_ extract 0 0) main@%_344_0) #b1)
                 false))
      (a!68 ((_ extract 59 0)
              (bvlshr (bvmul ((_ zero_extend 32) main@%_339_0)
                             ((_ zero_extend 32) main@%_337_0))
                      #x0000000000000002)))
      (a!71 (= ((_ extract 0 0)
                 (bvor (bvand main@%_393_0 main@%_390_0) main@%_387_0))
               #b1))
      (a!74 (= ((_ extract 0 0)
                 (bvor main@%_400_0 (bvand main@%_393_0 main@%_390_0)))
               #b1))
      (a!78 (ite (= ((_ extract 0 0) main@%_393_0) #b1)
                 (= ((_ extract 0 0) main@%_390_0) #b1)
                 false))
      (a!79 ((_ extract 59 0)
              (bvlshr (bvmul ((_ zero_extend 32) main@%_385_0)
                             ((_ zero_extend 32) main@%_383_0))
                      #x0000000000000002)))
      (a!81 (= ((_ extract 0 0)
                 (bvor (bvand main@%_439_0 main@%_436_0) main@%_433_0))
               #b1))
      (a!83 (= ((_ extract 0 0)
                 (bvor main@%_446_0 (bvand main@%_439_0 main@%_436_0)))
               #b1))
      (a!86 (ite (= ((_ extract 0 0) main@%_439_0) #b1)
                 (= ((_ extract 0 0) main@%_436_0) #b1)
                 false))
      (a!87 ((_ extract 59 0)
              (bvlshr (bvmul ((_ zero_extend 32) main@%_431_0)
                             ((_ zero_extend 32) main@%_429_0))
                      #x0000000000000002)))
      (a!90 (= ((_ extract 0 0)
                 (bvor (bvand main@%_485_0 main@%_482_0) main@%_479_0))
               #b1))
      (a!92 (= ((_ extract 0 0)
                 (bvor main@%_492_0 (bvand main@%_485_0 main@%_482_0)))
               #b1))
      (a!94 (ite (= ((_ extract 0 0) main@%_485_0) #b1)
                 (= ((_ extract 0 0) main@%_482_0) #b1)
                 false))
      (a!95 ((_ extract 59 0)
              (bvlshr (bvmul ((_ zero_extend 32) main@%_477_0)
                             ((_ zero_extend 32) main@%_475_0))
                      #x0000000000000002)))
      (a!98 (= ((_ extract 0 0)
                 (bvor (bvand main@%_531_0 main@%_528_0) main@%_525_0))
               #b1))
      (a!101 (= ((_ extract 0 0)
                  (bvor main@%_538_0 (bvand main@%_531_0 main@%_528_0)))
                #b1))
      (a!105 (ite (= ((_ extract 0 0) main@%_531_0) #b1)
                  (= ((_ extract 0 0) main@%_528_0) #b1)
                  false))
      (a!106 ((_ extract 59 0)
               (bvlshr (bvmul ((_ zero_extend 32) main@%_523_0)
                              ((_ zero_extend 32) main@%_521_0))
                       #x0000000000000002)))
      (a!108 (= ((_ extract 0 0)
                  (bvor (bvand main@%_577_0 main@%_574_0) main@%_571_0))
                #b1))
      (a!110 (= ((_ extract 0 0)
                  (bvor main@%_584_0 (bvand main@%_577_0 main@%_574_0)))
                #b1))
      (a!113 (ite (= ((_ extract 0 0) main@%_577_0) #b1)
                  (= ((_ extract 0 0) main@%_574_0) #b1)
                  false))
      (a!114 ((_ extract 59 0)
               (bvlshr (bvmul ((_ zero_extend 32) main@%_569_0)
                              ((_ zero_extend 32) main@%_567_0))
                       #x0000000000000002)))
      (a!117 (= ((_ extract 0 0)
                  (bvor (bvand main@%_623_0 main@%_620_0) main@%_617_0))
                #b1))
      (a!119 (= ((_ extract 0 0)
                  (bvor main@%_630_0 (bvand main@%_623_0 main@%_620_0)))
                #b1))
      (a!121 (ite (= ((_ extract 0 0) main@%_623_0) #b1)
                  (= ((_ extract 0 0) main@%_620_0) #b1)
                  false))
      (a!122 ((_ extract 59 0)
               (bvlshr (bvmul ((_ zero_extend 32) main@%_615_0)
                              ((_ zero_extend 32) main@%_613_0))
                       #x0000000000000002)))
      (a!125 (= ((_ extract 0 0)
                  (bvor (bvand main@%_669_0 main@%_666_0) main@%_663_0))
                #b1))
      (a!128 (= ((_ extract 0 0)
                  (bvor main@%_676_0 (bvand main@%_669_0 main@%_666_0)))
                #b1))
      (a!132 (ite (= ((_ extract 0 0) main@%_669_0) #b1)
                  (= ((_ extract 0 0) main@%_666_0) #b1)
                  false))
      (a!133 ((_ extract 59 0)
               (bvlshr (bvmul ((_ zero_extend 32) main@%_661_0)
                              ((_ zero_extend 32) main@%_659_0))
                       #x0000000000000002)))
      (a!135 (= ((_ extract 0 0)
                  (bvor (bvand main@%_715_0 main@%_712_0) main@%_709_0))
                #b1))
      (a!137 (= ((_ extract 0 0)
                  (bvor main@%_722_0 (bvand main@%_715_0 main@%_712_0)))
                #b1))
      (a!140 (ite (= ((_ extract 0 0) main@%_715_0) #b1)
                  (= ((_ extract 0 0) main@%_712_0) #b1)
                  false))
      (a!141 ((_ extract 59 0)
               (bvlshr (bvmul ((_ zero_extend 32) main@%_707_0)
                              ((_ zero_extend 32) main@%_705_0))
                       #x0000000000000002)))
      (a!144 (= ((_ extract 0 0)
                  (bvor (bvand main@%_761_0 main@%_758_0) main@%_755_0))
                #b1))
      (a!146 (= ((_ extract 0 0)
                  (bvor main@%_768_0 (bvand main@%_761_0 main@%_758_0)))
                #b1))
      (a!148 (ite (= ((_ extract 0 0) main@%_761_0) #b1)
                  (= ((_ extract 0 0) main@%_758_0) #b1)
                  false))
      (a!149 ((_ extract 59 0)
               (bvlshr (bvmul ((_ zero_extend 32) main@%_753_0)
                              ((_ zero_extend 32) main@%_751_0))
                       #x0000000000000002)))
      (a!152 (= ((_ extract 0 0)
                  (bvor (bvand main@%_807_0 main@%_804_0) main@%_801_0))
                #b1))
      (a!155 (= ((_ extract 0 0)
                  (bvor main@%_814_0 (bvand main@%_807_0 main@%_804_0)))
                #b1))
      (a!159 (ite (= ((_ extract 0 0) main@%_807_0) #b1)
                  (= ((_ extract 0 0) main@%_804_0) #b1)
                  false))
      (a!160 ((_ extract 59 0)
               (bvlshr (bvmul ((_ zero_extend 32) main@%_799_0)
                              ((_ zero_extend 32) main@%_797_0))
                       #x0000000000000002)))
      (a!162 (= ((_ extract 0 0)
                  (bvor (bvand main@%_853_0 main@%_850_0) main@%_847_0))
                #b1))
      (a!164 (= ((_ extract 0 0)
                  (bvor main@%_860_0 (bvand main@%_853_0 main@%_850_0)))
                #b1))
      (a!167 (ite (= ((_ extract 0 0) main@%_853_0) #b1)
                  (= ((_ extract 0 0) main@%_850_0) #b1)
                  false))
      (a!168 ((_ extract 59 0)
               (bvlshr (bvmul ((_ zero_extend 32) main@%_845_0)
                              ((_ zero_extend 32) main@%_843_0))
                       #x0000000000000002)))
      (a!171 (= ((_ extract 0 0)
                  (bvor (bvand main@%_898_0 main@%_896_0) main@%_893_0))
                #b1))
      (a!173 (= ((_ extract 0 0)
                  (bvor main@%_901_0 (bvand main@%_898_0 main@%_896_0)))
                #b1)))
(let ((a!2 (= (ite (= ((_ extract 0 0) main@%_4_0) #b1) main@%_2_0 #x00000000)
              (ite (= ((_ extract 0 0) main@%_4_0) #b1)
                   (ite a!1 main@%_2_0 #x00000000)
                   #x00000000)))
      (a!4 (= (ite (= ((_ extract 0 0) main@%_15_0) #b1) main@%_0_0 #x00000000)
              (ite (= ((_ extract 0 0) main@%_15_0) #b1)
                   (ite a!3 main@%_0_0 #x00000000)
                   #x00000000)))
      (a!7 (bvlshr (bvmul ((_ zero_extend 32) (ite a!3 main@%_0_0 #x00000000))
                          ((_ zero_extend 32) (ite a!1 main@%_2_0 #x00000000)))
                   #x0000000000000002))
      (a!10 (= (ite (= ((_ extract 0 0) main@%_25_0) #b1)
                    main@%_23_0
                    #x00000000)
               (ite (= ((_ extract 0 0) main@%_25_0) #b1)
                    (ite a!9 main@%_23_0 (ite a!1 main@%_2_0 #x00000000))
                    #x00000000)))
      (a!12 (= (ite (= ((_ extract 0 0) main@%_38_0) #b1)
                    main@%_21_0
                    #x00000000)
               (ite (= ((_ extract 0 0) main@%_38_0) #b1)
                    (ite a!11 main@%_21_0 (ite a!3 main@%_0_0 #x00000000))
                    #x00000000)))
      (a!15 (bvmul ((_ zero_extend 32)
                     (ite a!11 main@%_21_0 (ite a!3 main@%_0_0 #x00000000)))
                   ((_ zero_extend 32)
                     (ite a!9 main@%_23_0 (ite a!1 main@%_2_0 #x00000000)))))
      (a!18 (ite a!17
                 main@%_109_0
                 (ite a!9 main@%_23_0 (ite a!1 main@%_2_0 #x00000000))))
      (a!21 (ite a!20
                 main@%_107_0
                 (ite a!11 main@%_21_0 (ite a!3 main@%_0_0 #x00000000)))))
(let ((a!8 (= (ite a!5 ((_ zero_extend 4) a!6) #x0000000000000000)
              (ite a!5
                   ((_ zero_extend 4) ((_ extract 59 0) a!7))
                   #x0000000000000000)))
      (a!16 (ite a!13
                 ((_ zero_extend 4)
                   ((_ extract 59 0) (bvlshr a!15 #x0000000000000002)))
                 #x0000000000000000))
      (a!19 (= (ite (= ((_ extract 0 0) main@%_111_0) #b1)
                    main@%_109_0
                    #x00000000)
               (ite (= ((_ extract 0 0) main@%_111_0) #b1) a!18 #x00000000)))
      (a!22 (= (ite (= ((_ extract 0 0) main@%_124_0) #b1)
                    main@%_107_0
                    #x00000000)
               (ite (= ((_ extract 0 0) main@%_124_0) #b1) a!21 #x00000000)))
      (a!26 ((_ extract 59 0)
              (bvlshr (bvmul ((_ zero_extend 32) a!21)
                             ((_ zero_extend 32) a!18))
                      #x0000000000000002)))
      (a!28 (= (ite (= ((_ extract 0 0) main@%_157_0) #b1)
                    main@%_155_0
                    #x00000000)
               (ite (= ((_ extract 0 0) main@%_157_0) #b1)
                    (ite a!27 main@%_155_0 a!18)
                    #x00000000)))
      (a!30 (= (ite (= ((_ extract 0 0) main@%_170_0) #b1)
                    main@%_153_0
                    #x00000000)
               (ite (= ((_ extract 0 0) main@%_170_0) #b1)
                    (ite a!29 main@%_153_0 a!21)
                    #x00000000)))
      (a!34 (bvlshr (bvmul ((_ zero_extend 32) (ite a!29 main@%_153_0 a!21))
                           ((_ zero_extend 32) (ite a!27 main@%_155_0 a!18)))
                    #x0000000000000002))
      (a!37 (= (ite (= ((_ extract 0 0) main@%_203_0) #b1)
                    main@%_201_0
                    #x00000000)
               (ite (= ((_ extract 0 0) main@%_203_0) #b1)
                    (ite a!36 main@%_201_0 (ite a!27 main@%_155_0 a!18))
                    #x00000000)))
      (a!39 (= (ite (= ((_ extract 0 0) main@%_216_0) #b1)
                    main@%_199_0
                    #x00000000)
               (ite (= ((_ extract 0 0) main@%_216_0) #b1)
                    (ite a!38 main@%_199_0 (ite a!29 main@%_153_0 a!21))
                    #x00000000)))
      (a!42 (bvmul ((_ zero_extend 32)
                     (ite a!38 main@%_199_0 (ite a!29 main@%_153_0 a!21)))
                   ((_ zero_extend 32)
                     (ite a!36 main@%_201_0 (ite a!27 main@%_155_0 a!18)))))
      (a!45 (ite a!44
                 main@%_247_0
                 (ite a!36 main@%_201_0 (ite a!27 main@%_155_0 a!18))))
      (a!48 (ite a!47
                 main@%_245_0
                 (ite a!38 main@%_199_0 (ite a!29 main@%_153_0 a!21)))))
(let ((a!23 (and (= (ite a!13 ((_ zero_extend 4) a!14) #x0000000000000000) a!16)
                 a!19
                 a!22))
      (a!31 (and (= (ite a!24 ((_ zero_extend 4) a!25) #x0000000000000000)
                    (ite a!24 ((_ zero_extend 4) a!26) #x0000000000000000))
                 a!28
                 a!30))
      (a!35 (= (ite a!32 ((_ zero_extend 4) a!33) #x0000000000000000)
               (ite a!32
                    ((_ zero_extend 4) ((_ extract 59 0) a!34))
                    #x0000000000000000)))
      (a!43 (ite a!40
                 ((_ zero_extend 4)
                   ((_ extract 59 0) (bvlshr a!42 #x0000000000000002)))
                 #x0000000000000000))
      (a!46 (= (ite (= ((_ extract 0 0) main@%_249_0) #b1)
                    main@%_247_0
                    #x00000000)
               (ite (= ((_ extract 0 0) main@%_249_0) #b1) a!45 #x00000000)))
      (a!49 (= (ite (= ((_ extract 0 0) main@%_262_0) #b1)
                    main@%_245_0
                    #x00000000)
               (ite (= ((_ extract 0 0) main@%_262_0) #b1) a!48 #x00000000)))
      (a!53 ((_ extract 59 0)
              (bvlshr (bvmul ((_ zero_extend 32) a!48)
                             ((_ zero_extend 32) a!45))
                      #x0000000000000002)))
      (a!55 (= (ite (= ((_ extract 0 0) main@%_295_0) #b1)
                    main@%_293_0
                    #x00000000)
               (ite (= ((_ extract 0 0) main@%_295_0) #b1)
                    (ite a!54 main@%_293_0 a!45)
                    #x00000000)))
      (a!57 (= (ite (= ((_ extract 0 0) main@%_308_0) #b1)
                    main@%_291_0
                    #x00000000)
               (ite (= ((_ extract 0 0) main@%_308_0) #b1)
                    (ite a!56 main@%_291_0 a!48)
                    #x00000000)))
      (a!61 (bvlshr (bvmul ((_ zero_extend 32) (ite a!56 main@%_291_0 a!48))
                           ((_ zero_extend 32) (ite a!54 main@%_293_0 a!45)))
                    #x0000000000000002))
      (a!64 (= (ite (= ((_ extract 0 0) main@%_341_0) #b1)
                    main@%_339_0
                    #x00000000)
               (ite (= ((_ extract 0 0) main@%_341_0) #b1)
                    (ite a!63 main@%_339_0 (ite a!54 main@%_293_0 a!45))
                    #x00000000)))
      (a!66 (= (ite (= ((_ extract 0 0) main@%_354_0) #b1)
                    main@%_337_0
                    #x00000000)
               (ite (= ((_ extract 0 0) main@%_354_0) #b1)
                    (ite a!65 main@%_337_0 (ite a!56 main@%_291_0 a!48))
                    #x00000000)))
      (a!69 (bvmul ((_ zero_extend 32)
                     (ite a!65 main@%_337_0 (ite a!56 main@%_291_0 a!48)))
                   ((_ zero_extend 32)
                     (ite a!63 main@%_339_0 (ite a!54 main@%_293_0 a!45)))))
      (a!72 (ite a!71
                 main@%_385_0
                 (ite a!63 main@%_339_0 (ite a!54 main@%_293_0 a!45))))
      (a!75 (ite a!74
                 main@%_383_0
                 (ite a!65 main@%_337_0 (ite a!56 main@%_291_0 a!48)))))
(let ((a!50 (and (= (ite a!40 ((_ zero_extend 4) a!41) #x0000000000000000) a!43)
                 a!46
                 a!49))
      (a!58 (and (= (ite a!51 ((_ zero_extend 4) a!52) #x0000000000000000)
                    (ite a!51 ((_ zero_extend 4) a!53) #x0000000000000000))
                 a!55
                 a!57))
      (a!62 (= (ite a!59 ((_ zero_extend 4) a!60) #x0000000000000000)
               (ite a!59
                    ((_ zero_extend 4) ((_ extract 59 0) a!61))
                    #x0000000000000000)))
      (a!70 (ite a!67
                 ((_ zero_extend 4)
                   ((_ extract 59 0) (bvlshr a!69 #x0000000000000002)))
                 #x0000000000000000))
      (a!73 (= (ite (= ((_ extract 0 0) main@%_387_0) #b1)
                    main@%_385_0
                    #x00000000)
               (ite (= ((_ extract 0 0) main@%_387_0) #b1) a!72 #x00000000)))
      (a!76 (= (ite (= ((_ extract 0 0) main@%_400_0) #b1)
                    main@%_383_0
                    #x00000000)
               (ite (= ((_ extract 0 0) main@%_400_0) #b1) a!75 #x00000000)))
      (a!80 ((_ extract 59 0)
              (bvlshr (bvmul ((_ zero_extend 32) a!75)
                             ((_ zero_extend 32) a!72))
                      #x0000000000000002)))
      (a!82 (= (ite (= ((_ extract 0 0) main@%_433_0) #b1)
                    main@%_431_0
                    #x00000000)
               (ite (= ((_ extract 0 0) main@%_433_0) #b1)
                    (ite a!81 main@%_431_0 a!72)
                    #x00000000)))
      (a!84 (= (ite (= ((_ extract 0 0) main@%_446_0) #b1)
                    main@%_429_0
                    #x00000000)
               (ite (= ((_ extract 0 0) main@%_446_0) #b1)
                    (ite a!83 main@%_429_0 a!75)
                    #x00000000)))
      (a!88 (bvlshr (bvmul ((_ zero_extend 32) (ite a!83 main@%_429_0 a!75))
                           ((_ zero_extend 32) (ite a!81 main@%_431_0 a!72)))
                    #x0000000000000002))
      (a!91 (= (ite (= ((_ extract 0 0) main@%_479_0) #b1)
                    main@%_477_0
                    #x00000000)
               (ite (= ((_ extract 0 0) main@%_479_0) #b1)
                    (ite a!90 main@%_477_0 (ite a!81 main@%_431_0 a!72))
                    #x00000000)))
      (a!93 (= (ite (= ((_ extract 0 0) main@%_492_0) #b1)
                    main@%_475_0
                    #x00000000)
               (ite (= ((_ extract 0 0) main@%_492_0) #b1)
                    (ite a!92 main@%_475_0 (ite a!83 main@%_429_0 a!75))
                    #x00000000)))
      (a!96 (bvmul ((_ zero_extend 32)
                     (ite a!92 main@%_475_0 (ite a!83 main@%_429_0 a!75)))
                   ((_ zero_extend 32)
                     (ite a!90 main@%_477_0 (ite a!81 main@%_431_0 a!72)))))
      (a!99 (ite a!98
                 main@%_523_0
                 (ite a!90 main@%_477_0 (ite a!81 main@%_431_0 a!72))))
      (a!102 (ite a!101
                  main@%_521_0
                  (ite a!92 main@%_475_0 (ite a!83 main@%_429_0 a!75)))))
(let ((a!77 (and (= (ite a!67 ((_ zero_extend 4) a!68) #x0000000000000000) a!70)
                 a!73
                 a!76))
      (a!85 (and (= (ite a!78 ((_ zero_extend 4) a!79) #x0000000000000000)
                    (ite a!78 ((_ zero_extend 4) a!80) #x0000000000000000))
                 a!82
                 a!84))
      (a!89 (= (ite a!86 ((_ zero_extend 4) a!87) #x0000000000000000)
               (ite a!86
                    ((_ zero_extend 4) ((_ extract 59 0) a!88))
                    #x0000000000000000)))
      (a!97 (ite a!94
                 ((_ zero_extend 4)
                   ((_ extract 59 0) (bvlshr a!96 #x0000000000000002)))
                 #x0000000000000000))
      (a!100 (= (ite (= ((_ extract 0 0) main@%_525_0) #b1)
                     main@%_523_0
                     #x00000000)
                (ite (= ((_ extract 0 0) main@%_525_0) #b1) a!99 #x00000000)))
      (a!103 (= (ite (= ((_ extract 0 0) main@%_538_0) #b1)
                     main@%_521_0
                     #x00000000)
                (ite (= ((_ extract 0 0) main@%_538_0) #b1) a!102 #x00000000)))
      (a!107 ((_ extract 59 0)
               (bvlshr (bvmul ((_ zero_extend 32) a!102)
                              ((_ zero_extend 32) a!99))
                       #x0000000000000002)))
      (a!109 (= (ite (= ((_ extract 0 0) main@%_571_0) #b1)
                     main@%_569_0
                     #x00000000)
                (ite (= ((_ extract 0 0) main@%_571_0) #b1)
                     (ite a!108 main@%_569_0 a!99)
                     #x00000000)))
      (a!111 (= (ite (= ((_ extract 0 0) main@%_584_0) #b1)
                     main@%_567_0
                     #x00000000)
                (ite (= ((_ extract 0 0) main@%_584_0) #b1)
                     (ite a!110 main@%_567_0 a!102)
                     #x00000000)))
      (a!115 (bvlshr (bvmul ((_ zero_extend 32) (ite a!110 main@%_567_0 a!102))
                            ((_ zero_extend 32) (ite a!108 main@%_569_0 a!99)))
                     #x0000000000000002))
      (a!118 (= (ite (= ((_ extract 0 0) main@%_617_0) #b1)
                     main@%_615_0
                     #x00000000)
                (ite (= ((_ extract 0 0) main@%_617_0) #b1)
                     (ite a!117 main@%_615_0 (ite a!108 main@%_569_0 a!99))
                     #x00000000)))
      (a!120 (= (ite (= ((_ extract 0 0) main@%_630_0) #b1)
                     main@%_613_0
                     #x00000000)
                (ite (= ((_ extract 0 0) main@%_630_0) #b1)
                     (ite a!119 main@%_613_0 (ite a!110 main@%_567_0 a!102))
                     #x00000000)))
      (a!123 (bvmul ((_ zero_extend 32)
                      (ite a!119 main@%_613_0 (ite a!110 main@%_567_0 a!102)))
                    ((_ zero_extend 32)
                      (ite a!117 main@%_615_0 (ite a!108 main@%_569_0 a!99)))))
      (a!126 (ite a!125
                  main@%_661_0
                  (ite a!117 main@%_615_0 (ite a!108 main@%_569_0 a!99))))
      (a!129 (ite a!128
                  main@%_659_0
                  (ite a!119 main@%_613_0 (ite a!110 main@%_567_0 a!102)))))
(let ((a!104 (and (= (ite a!94 ((_ zero_extend 4) a!95) #x0000000000000000)
                     a!97)
                  a!100
                  a!103))
      (a!112 (and (= (ite a!105 ((_ zero_extend 4) a!106) #x0000000000000000)
                     (ite a!105 ((_ zero_extend 4) a!107) #x0000000000000000))
                  a!109
                  a!111))
      (a!116 (= (ite a!113 ((_ zero_extend 4) a!114) #x0000000000000000)
                (ite a!113
                     ((_ zero_extend 4) ((_ extract 59 0) a!115))
                     #x0000000000000000)))
      (a!124 (ite a!121
                  ((_ zero_extend 4)
                    ((_ extract 59 0) (bvlshr a!123 #x0000000000000002)))
                  #x0000000000000000))
      (a!127 (= (ite (= ((_ extract 0 0) main@%_663_0) #b1)
                     main@%_661_0
                     #x00000000)
                (ite (= ((_ extract 0 0) main@%_663_0) #b1) a!126 #x00000000)))
      (a!130 (= (ite (= ((_ extract 0 0) main@%_676_0) #b1)
                     main@%_659_0
                     #x00000000)
                (ite (= ((_ extract 0 0) main@%_676_0) #b1) a!129 #x00000000)))
      (a!134 ((_ extract 59 0)
               (bvlshr (bvmul ((_ zero_extend 32) a!129)
                              ((_ zero_extend 32) a!126))
                       #x0000000000000002)))
      (a!136 (= (ite (= ((_ extract 0 0) main@%_709_0) #b1)
                     main@%_707_0
                     #x00000000)
                (ite (= ((_ extract 0 0) main@%_709_0) #b1)
                     (ite a!135 main@%_707_0 a!126)
                     #x00000000)))
      (a!138 (= (ite (= ((_ extract 0 0) main@%_722_0) #b1)
                     main@%_705_0
                     #x00000000)
                (ite (= ((_ extract 0 0) main@%_722_0) #b1)
                     (ite a!137 main@%_705_0 a!129)
                     #x00000000)))
      (a!142 (bvlshr (bvmul ((_ zero_extend 32) (ite a!137 main@%_705_0 a!129))
                            ((_ zero_extend 32) (ite a!135 main@%_707_0 a!126)))
                     #x0000000000000002))
      (a!145 (= (ite (= ((_ extract 0 0) main@%_755_0) #b1)
                     main@%_753_0
                     #x00000000)
                (ite (= ((_ extract 0 0) main@%_755_0) #b1)
                     (ite a!144 main@%_753_0 (ite a!135 main@%_707_0 a!126))
                     #x00000000)))
      (a!147 (= (ite (= ((_ extract 0 0) main@%_768_0) #b1)
                     main@%_751_0
                     #x00000000)
                (ite (= ((_ extract 0 0) main@%_768_0) #b1)
                     (ite a!146 main@%_751_0 (ite a!137 main@%_705_0 a!129))
                     #x00000000)))
      (a!150 (bvmul ((_ zero_extend 32)
                      (ite a!146 main@%_751_0 (ite a!137 main@%_705_0 a!129)))
                    ((_ zero_extend 32)
                      (ite a!144 main@%_753_0 (ite a!135 main@%_707_0 a!126)))))
      (a!153 (ite a!152
                  main@%_799_0
                  (ite a!144 main@%_753_0 (ite a!135 main@%_707_0 a!126))))
      (a!156 (ite a!155
                  main@%_797_0
                  (ite a!146 main@%_751_0 (ite a!137 main@%_705_0 a!129)))))
(let ((a!131 (and (= (ite a!121 ((_ zero_extend 4) a!122) #x0000000000000000)
                     a!124)
                  a!127
                  a!130))
      (a!139 (and (= (ite a!132 ((_ zero_extend 4) a!133) #x0000000000000000)
                     (ite a!132 ((_ zero_extend 4) a!134) #x0000000000000000))
                  a!136
                  a!138))
      (a!143 (= (ite a!140 ((_ zero_extend 4) a!141) #x0000000000000000)
                (ite a!140
                     ((_ zero_extend 4) ((_ extract 59 0) a!142))
                     #x0000000000000000)))
      (a!151 (ite a!148
                  ((_ zero_extend 4)
                    ((_ extract 59 0) (bvlshr a!150 #x0000000000000002)))
                  #x0000000000000000))
      (a!154 (= (ite (= ((_ extract 0 0) main@%_801_0) #b1)
                     main@%_799_0
                     #x00000000)
                (ite (= ((_ extract 0 0) main@%_801_0) #b1) a!153 #x00000000)))
      (a!157 (= (ite (= ((_ extract 0 0) main@%_814_0) #b1)
                     main@%_797_0
                     #x00000000)
                (ite (= ((_ extract 0 0) main@%_814_0) #b1) a!156 #x00000000)))
      (a!161 ((_ extract 59 0)
               (bvlshr (bvmul ((_ zero_extend 32) a!156)
                              ((_ zero_extend 32) a!153))
                       #x0000000000000002)))
      (a!163 (= (ite (= ((_ extract 0 0) main@%_847_0) #b1)
                     main@%_845_0
                     #x00000000)
                (ite (= ((_ extract 0 0) main@%_847_0) #b1)
                     (ite a!162 main@%_845_0 a!153)
                     #x00000000)))
      (a!165 (= (ite (= ((_ extract 0 0) main@%_860_0) #b1)
                     main@%_843_0
                     #x00000000)
                (ite (= ((_ extract 0 0) main@%_860_0) #b1)
                     (ite a!164 main@%_843_0 a!156)
                     #x00000000)))
      (a!169 (bvlshr (bvmul ((_ zero_extend 32) (ite a!164 main@%_843_0 a!156))
                            ((_ zero_extend 32) (ite a!162 main@%_845_0 a!153)))
                     #x0000000000000002))
      (a!172 (= (ite (= ((_ extract 0 0) main@%_893_0) #b1)
                     main@%_891_0
                     #x00000000)
                (ite (= ((_ extract 0 0) main@%_893_0) #b1)
                     (ite a!171 main@%_891_0 (ite a!162 main@%_845_0 a!153))
                     #x00000000)))
      (a!174 (= (ite (= ((_ extract 0 0) main@%_901_0) #b1)
                     main@%_889_0
                     #x00000000)
                (ite (= ((_ extract 0 0) main@%_901_0) #b1)
                     (ite a!173 main@%_889_0 (ite a!164 main@%_843_0 a!156))
                     #x00000000))))
(let ((a!158 (and (= (ite a!148 ((_ zero_extend 4) a!149) #x0000000000000000)
                     a!151)
                  a!154
                  a!157))
      (a!166 (and (= (ite a!159 ((_ zero_extend 4) a!160) #x0000000000000000)
                     (ite a!159 ((_ zero_extend 4) a!161) #x0000000000000000))
                  a!163
                  a!165))
      (a!170 (= (ite a!167 ((_ zero_extend 4) a!168) #x0000000000000000)
                (ite a!167
                     ((_ zero_extend 4) ((_ extract 59 0) a!169))
                     #x0000000000000000))))
(let ((a!175 (ite a!166 (and true (xor (and a!170 a!172 a!174) true)) true)))
(let ((a!176 (ite a!131
                  (ite a!139
                       (ite (and a!143 a!145 a!147) (ite a!158 a!175 true) true)
                       true)
                  true)))
(let ((a!177 (ite a!104
                  (ite a!112 (ite (and a!116 a!118 a!120) a!176 true) true)
                  true)))
(let ((a!178 (ite a!77
                  (ite a!85 (ite (and a!89 a!91 a!93) a!177 true) true)
                  true)))
(let ((a!179 (ite a!50
                  (ite a!58 (ite (and a!62 a!64 a!66) a!178 true) true)
                  true)))
(let ((a!180 (ite a!23
                  (ite a!31 (ite (and a!35 a!37 a!39) a!179 true) true)
                  true)))
  (ite (and a!2 a!4) (ite (and a!8 a!10 a!12) a!180 true) true)))))))))))))))))

(check-sat)
